(set-option :produce-models true)
(set-logic QF_UF)
(declare-fun p6() Bool)
(declare-fun p45() Bool)
(declare-fun p22() Bool)
(declare-fun p32() Bool)
(declare-fun p49() Bool)
(declare-fun p26() Bool)
(declare-fun p12() Bool)
(declare-fun p25() Bool)
(declare-fun p23() Bool)
(declare-fun p44() Bool)
(declare-fun p4() Bool)
(declare-fun p43() Bool)
(declare-fun p48() Bool)
(declare-fun p17() Bool)
(declare-fun p2() Bool)
(declare-fun p10() Bool)
(declare-fun p21() Bool)
(declare-fun p11() Bool)
(declare-fun p40() Bool)
(declare-fun p37() Bool)
(declare-fun p36() Bool)
(declare-fun p15() Bool)
(declare-fun p13() Bool)
(declare-fun p9() Bool)
(declare-fun p41() Bool)
(declare-fun p1() Bool)
(declare-fun p33() Bool)
(declare-fun p18() Bool)
(declare-fun p8() Bool)
(declare-fun p24() Bool)
(declare-fun p42() Bool)
(declare-fun p29() Bool)
(declare-fun p0() Bool)
(declare-fun p7() Bool)
(declare-fun p34() Bool)
(declare-fun p35() Bool)
(declare-fun p20() Bool)
(declare-fun p5() Bool)
(declare-fun p3() Bool)
(declare-fun p30() Bool)
(declare-fun p47() Bool)
(declare-fun p46() Bool)
(declare-fun p38() Bool)
(declare-fun p14() Bool)
(declare-fun p19() Bool)
(declare-fun p16() Bool)
(declare-fun p28() Bool)
(declare-fun p39() Bool)
(declare-fun p27() Bool)
(declare-fun p31() Bool)
(assert
(and (or (not p6) (not p45) (not p22)) (or p32 (not p49) p26) (or p12 (not p25) p32) (or p23 (not p44) (not p4)) (or p43 p48 p17) (or p17 (not p2) p10) (or (not p21) p11 (not p44)) (or (not p26) p40 (not p37)) (or (not p36) (not p15) p49) (or p13 (not p9) p41) (or p1 p43 (not p33)) (or (not p17) (not p11) p18) (or p41 (not p2) (not p36)) (or p37 (not p8) (not p45)) (or p24 p26 p42) (or (not p26) (not p29) p49) (or (not p0) (not p44) p24) (or (not p7) (not p22) p34) (or (not p37) (not p35) p22) (or (not p2) p6 (not p20)) (or p15 (not p5) (not p3)) (or (not p30) (not p22) (not p48)) (or p44 p4 (not p2)) (or (not p37) (not p35) p47) (or (not p10) p22 (not p46)) (or p6 p48 p41) (or p23 (not p30) (not p3)) (or (not p23) (not p34) (not p13)) (or p45 (not p34) (not p41)) (or p41 p42 (not p38)) (or p48 p47 p15) (or (not p37) p8 (not p30)) (or (not p44) (not p44) p48) (or (not p40) (not p1) (not p45)) (or p14 p2 (not p33)) (or (not p19) (not p9) p3) (or (not p15) (not p41) p12) (or (not p43) p8 p16) (or (not p2) (not p34) (not p45)) (or (not p11) p38 (not p28)) (or (not p1) p20 (not p42)) (or p7 p37 p12) (or p17 p23 p13) (or (not p45) p12 (not p35)) (or p18 (not p49) p14) (or p7 p28 (not p18)) (or p41 p13 (not p21)) (or p14 p8 p10) (or p21 (not p41) (not p23)) (or p38 (not p47) (not p19)) (or (not p30) (not p26) p10) (or (not p4) (not p9) p49) (or p26 (not p40) p37) (or p18 (not p43) (not p35)) (or (not p41) (not p6) (not p3)) (or p3 (not p2) p39) (or p43 p3 p3) (or (not p10) (not p11) (not p47)) (or p7 (not p11) p21) (or (not p32) p38 p16) (or (not p23) p35 (not p29)) (or p8 (not p32) p40) (or p22 p29 p46) (or (not p8) (not p26) (not p18)) (or p29 p35 (not p48)) (or (not p14) (not p48) (not p41)) (or p17 p40 (not p3)) (or p25 (not p7) p38) (or (not p20) (not p1) (not p2)) (or p16 p14 (not p29)) (or (not p7) p34 p6) (or (not p5) (not p15) (not p12)) (or p47 (not p33) (not p32)) (or (not p8) p11 (not p39)) (or (not p21) (not p1) p23) (or p4 (not p18) (not p45)) (or p23 (not p47) p37) (or p15 p37 p18) (or p9 p8 p44) (or (not p43) p26 (not p33)) (or (not p5) p11 (not p33)) (or (not p3) p6 p42) (or (not p26) p44 p32) (or (not p29) (not p39) p29) (or (not p49) p1 (not p27)) (or p3 (not p35) (not p36)) (or (not p17) (not p6) p16) (or p2 p14 (not p15)) (or p36 p4 (not p38)) (or (not p34) p38 p22) (or (not p2) (not p23) p37) (or p43 p10 p34) (or (not p4) p5 (not p26)) (or (not p17) (not p0) p23) (or (not p20) p21 (not p6)) (or p13 (not p21) p31) (or (not p33) p1 (not p28)) (or p32 (not p9) (not p2)) (or p6 p41 p1) (or (not p26) p6 (not p7)) (or p5 (not p22) (not p45)) (or p34 (not p35) p49) (or p36 p48 (not p11)) (or p3 p11 (not p37)) (or p44 (not p33) p48) (or (not p46) (not p0) (not p43)) (or p4 (not p42) p38) (or (not p18) p45 (not p34)) (or p22 (not p46) p33) (or p18 (not p7) p34) (or (not p33) (not p14) (not p28)) (or (not p13) p13 (not p4)) (or (not p2) p21 p35) (or p35 p11 p31) (or (not p43) (not p25) (not p11)) (or (not p45) (not p10) p25) (or p43 p18 (not p13)) (or (not p13) (not p19) p5) (or (not p4) (not p33) (not p44)) (or p16 (not p24) p22) (or (not p30) (not p12) (not p21)) (or p14 p14 p38) (or p40 (not p17) (not p15)) (or (not p22) p48 (not p30)) (or (not p42) (not p18) (not p49)) (or p16 p3 p16) (or (not p35) (not p16) (not p15)) (or p8 (not p4) p43) (or p24 p8 p29) (or (not p2) (not p29) p1) (or p41 p49 (not p5)) (or p48 (not p14) p45) (or p26 p40 p30) (or p13 (not p8) (not p43)) (or p27 p20 (not p44)) (or (not p32) p9 p39) (or (not p45) (not p44) (not p43)) (or p44 p41 p46) (or (not p47) (not p44) p20) (or (not p30) p48 p13) (or p26 p26 p16) (or (not p14) p29 (not p3)) (or p29 (not p9) (not p22)) (or (not p5) (not p4) (not p31)) (or p4 p30 (not p33)) (or (not p42) p31 (not p35)) (or p13 (not p19) p19) (or p46 (not p48) (not p45)) (or p41 (not p31) p0) (or (not p44) p21 (not p14)) (or (not p47) p14 (not p40)) (or p14 (not p37) p33) (or (not p25) p14 p28) (or (not p41) p18 p11) (or (not p10) (not p42) p6) (or (not p46) p13 (not p23)) (or (not p1) p39 p36) (or (not p9) p25 p45) (or (not p46) p37 (not p4)) (or (not p2) (not p2) (not p0)) (or (not p44) p41 (not p45)) (or p35 p12 p17) (or p28 p36 p41) (or p17 p31 p9) (or p38 (not p23) p41) (or (not p28) (not p11) (not p37)) (or (not p4) (not p39) (not p37)) (or (not p3) (not p16) p28) (or (not p25) (not p45) (not p24)) (or (not p12) p35 (not p43)) (or (not p0) (not p30) p21) (or (not p26) p3 (not p44)) (or p15 p46 (not p8)) (or (not p42) p19 (not p18)) (or (not p12) p7 p16) (or (not p3) (not p19) p48) (or p49 (not p39) p15) (or p20 p15 p47) (or p15 (not p34) p1) (or (not p28) (not p28) p5) (or (not p36) p31 p36) (or p29 (not p7) (not p5)) (or p3 (not p9) (not p36)) (or p9 p30 (not p27)) (or p44 p42 (not p36)) (or p6 (not p48) (not p36)) (or p17 p14 p41) (or p21 p7 (not p16)) (or (not p30) (not p38) (not p29)) (or p25 (not p44) (not p29)) (or p23 (not p19) p12) (or p14 (not p41) (not p14)) (or p2 (not p45) p9) (or p43 (not p29) (not p26)) (or (not p18) (not p0) p14) (or (not p7) (not p18) p41) (or (not p26) p2 p39) (or p2 (not p30) p29) (or p44 p33 (not p35)) (or (not p32) p39 (not p27)) (or (not p26) p13 (not p4)) (or (not p39) p45 p9) (or p13 (not p16) (not p19)) (or p30 p32 (not p8)) (or p24 (not p45) p41) (or p39 p1 (not p37)) (or p38 (not p3) (not p28)) (or (not p4) p42 (not p15)) (or (not p25) (not p28) (not p14)) (or (not p37) (not p43) (not p36)))
)
(check-sat)
(get-model)
